c FILE: myciel5.col
c Myciel5 graph — Triangle-free with chromatic number 5
p edge 45 144
e 1 2
e 1 4
e 1 7
e 1 9
e 1 13
e 1 15
e 1 18
e 1 20
e 1 24
e 1 26
e 2 3
e 2 6
e 2 8
e 2 12
e 2 14
e 2 17
e 2 19
e 2 23
e 2 25
e 3 5
e 3 7
e 3 10
e 3 13
e 3 16
e 3 18
e 3 21
e 3 27
e 4 5
e 4 6
e 4 10
e 4 12
e 4 16
e 4 17
e 4 21
e 4 28
e 5 8
e 5 9
e 5 14
e 5 15
e 5 19
e 5 20
e 5 29
e 6 11
e 6 13
e 6 15
e 6 22
e 6 30
e 7 11
e 7 12
e 7 14
e 7 22
e 7 31
e 8 11
e 8 13
e 8 16
e 8 22
e 8 32
e 9 11
e 9 12
e 9 16
e 9 22
e 9 33
e 10 11
e 10 14
e 10 15
e 10 22
e 10 34
e 11 17
e 11 18
e 11 19
e 11 20
e 11 21
e 11 35
e 12 23
e 13 23
e 14 23
e 15 23
e 16 23
e 17 23
e 18 23
e 19 23
e 20 23
e 21 23
e 22 23
e 24 45
e 25 45
e 26 45
e 27 45
e 28 45
e 29 45
e 30 45
e 31 45
e 32 45
e 33 45
e 34 45
e 35 45
e 36 24
e 37 25
e 38 26
e 39 27
e 40 28
e 41 29
e 42 30
e 43 31
e 44 32
e 36 33
e 37 34
e 38 35
e 39 36
e 40 37
e 41 38
e 42 39
e 43 40
e 44 41
e 36 42
e 37 43
e 38 44
